Version identifier: 22.1.0.0 | 2022-03-09 | 1a383f8ce
CPXPARAM_Threads                                 1
CPXPARAM_MIP_Strategy_VariableSelect             3
CPXPARAM_TimeLimit                               599.99998385399999
1 of 1 MIP starts provided solutions.
MIP start 'm1' defined initial solution with objective 3.0000.
Tried aggregator 1 time.
MIP Presolve eliminated 13 rows and 0 columns.
MIP Presolve modified 178 coefficients.
Reduced MIP has 1813 rows, 7800 columns, and 137529 nonzeros.
Reduced MIP has 7800 binaries, 0 generals, 0 SOSs, and 0 indicators.
Presolve time = 0.16 sec. (232.52 ticks)
Probing time = 0.03 sec. (27.40 ticks)
Tried aggregator 1 time.
Detecting symmetries...
MIP Presolve modified 9 coefficients.
Reduced MIP has 1813 rows, 7800 columns, and 137835 nonzeros.
Reduced MIP has 7800 binaries, 0 generals, 0 SOSs, and 0 indicators.
Presolve time = 0.13 sec. (178.13 ticks)
Probing time = 0.03 sec. (27.42 ticks)
Clique table members: 680.
MIP emphasis: balance optimality and feasibility.
MIP search method: dynamic search.
Parallel mode: none, using 1 thread.
Root relaxation solution time = 2.62 sec. (3395.17 ticks)

        Nodes                                         Cuts/
   Node  Left     Objective  IInf  Best Integer    Best Bound    ItCnt     Gap

*     0+    0                            3.0000    45150.0000              --- 
      0     0      300.0000  1121        3.0000      300.0000     8325     --- 
*     0+    0                          300.0000      300.0000             0.00%
      0     0        cutoff            300.0000      300.0000     8325    0.00%
Elapsed time = 10.17 sec. (12842.33 ticks, tree = 0.01 MB, solutions = 2)

Root node processing (before b&c):
  Real time             =   10.17 sec. (12843.08 ticks)
Sequential b&c:
  Real time             =    0.00 sec. (0.00 ticks)
                          ------------
Total (root+branch&cut) =   10.17 sec. (12843.08 ticks)
Primal:	300
Dual:	300
Status:	Optimal
Time:	10.2
Sequence:
	10
	24
	10
	3
	14
	24
	11
	13
	14
	19
	11
	13
	14
	23
	15
	23
	6
	16
	1
	19
	10
	9
	14
	13
	5
	22
	21
	16
	10
	9
	6
	12
	21
	2
	10
	23
	3
	14
	24
	20
	2
	21
	16
	10
	9
	20
	16
	21
	2
	10
	23
	21
	8
	10
	13
	20
	8
	21
	0
	10
	2
	14
	19
	10
	9
	20
	16
	21
	2
	10
	16
	13
	15
	23
	7
	16
	11
	19
	7
	16
	11
	19
	6
	24
	15
	24
	14
	13
	22
	21
	13
	14
	9
	6
	16
	9
	16
	20
	24
	8
	20
	19
	10
	9
	21
	24
	17
	13
	20
	12
	18
	12
	20
	13
	17
	24
	14
	13
	11
	16
	7
	16
	11
	24
	14
	13
	17
	24
	14
	9
	20
	16
	9
	14
	13
	11
	19
	10
	19
	11
	24
	14
	13
	17
	23
	6
	16
	1
	19
	10
	24
	17
	13
	14
	23
	2
	14
	24
	14
	2
	10
	16
	21
	9
	16
	14
	13
	11
	13
	14
	16
	9
	10
	13
	15
	16
	10
	13
	15
	12
	7
	13
	11
	16
	21
	13
	15
	13
	21
	13
	22
	21
	22
	14
	13
	5
	2
	10
	19
	11
	16
	21
	23
	9
	10
	16
	21
	22
	6
	16
	6
	8
	6
	24
	17
	13
	21
	13
	11
	16
	6
	19
	11
	16
	13
	23
	17
	13
	16
	11
	13
	21
	23
	15
	23
	13
	21
	2
	12
	11
	13
	5
	13
	17
	24
	10
	8
	6
	12
	6
	22
	16
	24
	14
	22
	13
	21
	2
	14
	13
	11
	16
	19
	6
	22
	21
	16
	10
	2
	11
	12
	21
	24
	11
	24
	14
	19
	11
	13
	6
	16
	8
	7
	24
	23
	15
	16
	6
	24
	1
	12
	4
	9
	6
	13
	15
	16
	11
	24
	7
